p cnf 523 1158
-2 1 0
-4 3 0
-6 5 0
-8 7 0
-10 9 0
-12 11 0
-14 13 0
-16 15 0
-18 17 0
-20 19 0
36 0
21 37 0
-20 37 0
21 -20 38 0
-19 37 0
21 -19 38 0
-20 -19 38 0
21 -20 -19 39 0
-18 40 0
-17 40 0
-18 -17 41 0
-16 40 0
-18 -16 41 0
-17 -16 41 0
-18 -17 -16 42 0
-15 43 0
-2 43 0
-15 -2 44 0
-1 43 0
-15 -1 44 0
-2 -1 44 0
-15 -2 -1 45 0
-40 46 0
-41 47 0
-42 48 0
-43 46 0
-44 47 0
-45 48 0
-40 -43 47 0
-40 -44 48 0
-40 -45 49 0
-41 -43 48 0
-41 -44 49 0
-41 -45 50 0
-42 -43 49 0
-42 -44 50 0
-42 -45 51 0
-37 52 0
-38 53 0
-39 54 0
-46 52 0
-47 53 0
-48 54 0
-49 55 0
-50 56 0
-51 57 0
-37 -46 53 0
-37 -47 54 0
-37 -48 55 0
-37 -49 56 0
-37 -50 57 0
-37 -51 58 0
-38 -46 54 0
-38 -47 55 0
-38 -48 56 0
-38 -49 57 0
-38 -50 58 0
-38 -51 59 0
-39 -46 55 0
-39 -47 56 0
-39 -48 57 0
-39 -49 58 0
-39 -50 59 0
-39 -51 60 0
22 61 0
21 61 0
22 21 62 0
-61 63 0
-62 64 0
-53 63 0
-55 64 0
-57 65 0
-59 66 0
-61 -53 64 0
-61 -55 65 0
-61 -57 66 0
-61 -59 67 0
-62 -53 65 0
-62 -55 66 0
-62 -57 67 0
-62 -59 68 0
-68 0
22 69 0
-64 69 0
-66 70 0
-68 71 0
22 -64 70 0
22 -66 71 0
-71 0
72 0
-21 73 0
20 73 0
-21 20 74 0
19 73 0
-21 19 74 0
20 19 74 0
-21 20 19 75 0
-72 76 0
-73 76 0
-74 77 0
-75 78 0
-72 -73 77 0
-72 -74 78 0
-72 -75 79 0
18 80 0
17 80 0
18 17 81 0
16 80 0
18 16 81 0
17 16 81 0
18 17 16 82 0
15 83 0
2 83 0
15 2 84 0
1 83 0
15 1 84 0
2 1 84 0
15 2 1 85 0
-80 86 0
-81 87 0
-82 88 0
-83 86 0
-84 87 0
-85 88 0
-80 -83 87 0
-80 -84 88 0
-80 -85 89 0
-81 -83 88 0
-81 -84 89 0
-81 -85 90 0
-82 -83 89 0
-82 -84 90 0
-82 -85 91 0
-76 92 0
-77 93 0
-78 94 0
-79 95 0
-86 92 0
-87 93 0
-88 94 0
-89 95 0
-90 96 0
-91 97 0
-76 -86 93 0
-76 -87 94 0
-76 -88 95 0
-76 -89 96 0
-76 -90 97 0
-76 -91 98 0
-77 -86 94 0
-77 -87 95 0
-77 -88 96 0
-77 -89 97 0
-77 -90 98 0
-77 -91 99 0
-78 -86 95 0
-78 -87 96 0
-78 -88 97 0
-78 -89 98 0
-78 -90 99 0
-79 -86 96 0
-79 -87 97 0
-79 -88 98 0
-79 -89 99 0
-99 0
-22 100 0
-21 100 0
-22 -21 101 0
-100 102 0
-101 103 0
-93 102 0
-95 103 0
-97 104 0
-99 105 0
-100 -93 103 0
-100 -95 104 0
-100 -97 105 0
-101 -93 104 0
-101 -95 105 0
-105 0
-22 106 0
-103 106 0
-105 107 0
-22 -103 107 0
-107 0
108 0
23 109 0
-18 109 0
23 -18 110 0
-17 109 0
23 -17 110 0
-18 -17 110 0
23 -18 -17 111 0
-15 112 0
-4 112 0
-15 -4 113 0
-3 112 0
-15 -3 113 0
-4 -3 113 0
-15 -4 -3 114 0
-16 115 0
-112 115 0
-113 116 0
-114 117 0
-16 -112 116 0
-16 -113 117 0
-16 -114 118 0
-109 119 0
-110 120 0
-111 121 0
-115 119 0
-116 120 0
-117 121 0
-118 122 0
-109 -115 120 0
-109 -116 121 0
-109 -117 122 0
-109 -118 123 0
-110 -115 121 0
-110 -116 122 0
-110 -117 123 0
-110 -118 124 0
-111 -115 122 0
-111 -116 123 0
-111 -117 124 0
-111 -118 125 0
-108 126 0
24 126 0
-108 24 127 0
23 126 0
-108 23 127 0
24 23 127 0
-108 24 23 128 0
-126 129 0
-127 130 0
-128 131 0
-120 129 0
-122 130 0
-124 131 0
-126 -120 130 0
-126 -122 131 0
-126 -124 132 0
-127 -120 131 0
-127 -122 132 0
-127 -124 133 0
-128 -120 132 0
-128 -122 133 0
-128 -124 134 0
-134 0
24 135 0
-130 135 0
-132 136 0
-134 137 0
24 -130 136 0
24 -132 137 0
-137 0
138 0
-138 139 0
-23 139 0
-138 -23 140 0
18 139 0
-138 18 140 0
-23 18 140 0
-138 -23 18 141 0
17 142 0
16 142 0
17 16 143 0
15 144 0
4 144 0
15 4 145 0
3 144 0
15 3 145 0
4 3 145 0
15 4 3 146 0
-142 147 0
-143 148 0
-144 147 0
-145 148 0
-146 149 0
-142 -144 148 0
-142 -145 149 0
-142 -146 150 0
-143 -144 149 0
-143 -145 150 0
-143 -146 151 0
-139 152 0
-140 153 0
-141 154 0
-147 152 0
-148 153 0
-149 154 0
-150 155 0
-151 156 0
-139 -147 153 0
-139 -148 154 0
-139 -149 155 0
-139 -150 156 0
-139 -151 157 0
-140 -147 154 0
-140 -148 155 0
-140 -149 156 0
-140 -150 157 0
-140 -151 158 0
-141 -147 155 0
-141 -148 156 0
-141 -149 157 0
-141 -150 158 0
-141 -151 159 0
-159 0
-24 160 0
-23 160 0
-24 -23 161 0
-160 162 0
-161 163 0
-153 162 0
-155 163 0
-157 164 0
-159 165 0
-160 -153 163 0
-160 -155 164 0
-160 -157 165 0
-161 -153 164 0
-161 -155 165 0
-165 0
-24 166 0
-163 166 0
-165 167 0
-24 -163 167 0
-167 0
168 0
-168 169 0
25 169 0
-168 25 170 0
-18 169 0
-168 -18 170 0
25 -18 170 0
-168 25 -18 171 0
-17 172 0
-6 172 0
-17 -6 173 0
-5 172 0
-17 -5 173 0
-6 -5 173 0
-17 -6 -5 174 0
-169 175 0
-170 176 0
-171 177 0
-172 175 0
-173 176 0
-174 177 0
-169 -172 176 0
-169 -173 177 0
-169 -174 178 0
-170 -172 177 0
-170 -173 178 0
-170 -174 179 0
-171 -172 178 0
-171 -173 179 0
-171 -174 180 0
-180 0
25 181 0
-176 181 0
-178 182 0
-180 183 0
25 -176 182 0
25 -178 183 0
-183 0
184 0
-25 185 0
18 185 0
-25 18 186 0
17 187 0
6 187 0
17 6 188 0
5 187 0
17 5 188 0
6 5 188 0
17 6 5 189 0
-185 190 0
-186 191 0
-187 190 0
-188 191 0
-189 192 0
-185 -187 191 0
-185 -188 192 0
-185 -189 193 0
-186 -187 192 0
-186 -188 193 0
-193 0
-25 194 0
-191 194 0
-193 195 0
-25 -191 195 0
-195 0
196 0
26 197 0
-16 197 0
26 -16 198 0
-15 199 0
-8 199 0
-15 -8 200 0
-7 199 0
-15 -7 200 0
-8 -7 200 0
-15 -8 -7 201 0
-197 202 0
-198 203 0
-199 202 0
-200 203 0
-201 204 0
-197 -199 203 0
-197 -200 204 0
-197 -201 205 0
-198 -199 204 0
-198 -200 205 0
-198 -201 206 0
-196 207 0
27 207 0
-196 27 208 0
26 207 0
-196 26 208 0
27 26 208 0
-196 27 26 209 0
-19 210 0
-18 210 0
-19 -18 211 0
-17 210 0
-19 -17 211 0
-18 -17 211 0
-19 -18 -17 212 0
-20 213 0
-210 213 0
-211 214 0
-212 215 0
-20 -210 214 0
-20 -211 215 0
-20 -212 216 0
-207 217 0
-208 218 0
-209 219 0
-213 217 0
-214 218 0
-215 219 0
-216 220 0
-207 -213 218 0
-207 -214 219 0
-207 -215 220 0
-207 -216 221 0
-208 -213 219 0
-208 -214 220 0
-208 -215 221 0
-208 -216 222 0
-209 -213 220 0
-209 -214 221 0
-209 -215 222 0
-209 -216 223 0
-217 224 0
-218 225 0
-219 226 0
-220 227 0
-221 228 0
-222 229 0
-223 230 0
-203 224 0
-205 225 0
-217 -203 225 0
-217 -205 226 0
-218 -203 226 0
-218 -205 227 0
-219 -203 227 0
-219 -205 228 0
-220 -203 228 0
-220 -205 229 0
-221 -203 229 0
-221 -205 230 0
-222 -203 230 0
-222 -205 231 0
-223 -203 231 0
-223 -205 232 0
28 233 0
27 233 0
28 27 234 0
-233 235 0
-234 236 0
-225 235 0
-227 236 0
-229 237 0
-231 238 0
-233 -225 236 0
-233 -227 237 0
-233 -229 238 0
-233 -231 239 0
-234 -225 237 0
-234 -227 238 0
-234 -229 239 0
-234 -231 240 0
-240 0
28 241 0
-236 241 0
-238 242 0
-240 243 0
28 -236 242 0
28 -238 243 0
-243 0
244 0
-244 245 0
-26 245 0
-244 -26 246 0
16 245 0
-244 16 246 0
-26 16 246 0
-244 -26 16 247 0
15 248 0
8 248 0
15 8 249 0
7 248 0
15 7 249 0
8 7 249 0
15 8 7 250 0
-245 251 0
-246 252 0
-247 253 0
-248 251 0
-249 252 0
-250 253 0
-245 -248 252 0
-245 -249 253 0
-245 -250 254 0
-246 -248 253 0
-246 -249 254 0
-246 -250 255 0
-247 -248 254 0
-247 -249 255 0
-247 -250 256 0
-244 257 0
-27 257 0
-244 -27 258 0
-26 257 0
-244 -26 258 0
-27 -26 258 0
-244 -27 -26 259 0
19 260 0
18 260 0
19 18 261 0
17 260 0
19 17 261 0
18 17 261 0
19 18 17 262 0
20 263 0
-260 263 0
-261 264 0
-262 265 0
20 -260 264 0
20 -261 265 0
20 -262 266 0
-257 267 0
-258 268 0
-259 269 0
-263 267 0
-264 268 0
-265 269 0
-266 270 0
-257 -263 268 0
-257 -264 269 0
-257 -265 270 0
-257 -266 271 0
-258 -263 269 0
-258 -264 270 0
-258 -265 271 0
-258 -266 272 0
-259 -263 270 0
-259 -264 271 0
-259 -265 272 0
-259 -266 273 0
-267 274 0
-268 275 0
-269 276 0
-270 277 0
-271 278 0
-272 279 0
-273 280 0
-252 274 0
-254 275 0
-256 276 0
-267 -252 275 0
-267 -254 276 0
-267 -256 277 0
-268 -252 276 0
-268 -254 277 0
-268 -256 278 0
-269 -252 277 0
-269 -254 278 0
-269 -256 279 0
-270 -252 278 0
-270 -254 279 0
-270 -256 280 0
-271 -252 279 0
-271 -254 280 0
-271 -256 281 0
-272 -252 280 0
-272 -254 281 0
-273 -252 281 0
-281 0
-28 282 0
-27 282 0
-28 -27 283 0
-282 284 0
-283 285 0
-275 284 0
-277 285 0
-279 286 0
-281 287 0
-282 -275 285 0
-282 -277 286 0
-282 -279 287 0
-283 -275 286 0
-283 -277 287 0
-287 0
-28 288 0
-285 288 0
-287 289 0
-28 -285 289 0
-289 0
290 0
29 291 0
-20 291 0
29 -20 292 0
-19 293 0
-10 293 0
-19 -10 294 0
-9 293 0
-19 -9 294 0
-10 -9 294 0
-19 -10 -9 295 0
-291 296 0
-292 297 0
-293 296 0
-294 297 0
-295 298 0
-291 -293 297 0
-291 -294 298 0
-291 -295 299 0
-292 -293 298 0
-292 -294 299 0
-292 -295 300 0
29 301 0
-16 301 0
29 -16 302 0
-15 301 0
29 -15 302 0
-16 -15 302 0
29 -16 -15 303 0
30 304 0
-301 304 0
-302 305 0
-303 306 0
30 -301 305 0
30 -302 306 0
30 -303 307 0
-304 308 0
-305 309 0
-306 310 0
-307 311 0
-297 308 0
-299 309 0
-304 -297 309 0
-304 -299 310 0
-305 -297 310 0
-305 -299 311 0
-306 -297 311 0
-306 -299 312 0
-307 -297 312 0
-307 -299 313 0
-313 0
30 314 0
-309 314 0
-311 315 0
-313 316 0
30 -309 315 0
30 -311 316 0
-316 0
317 0
-317 318 0
-29 318 0
-317 -29 319 0
20 318 0
-317 20 319 0
-29 20 319 0
-317 -29 20 320 0
19 321 0
10 321 0
19 10 322 0
9 321 0
19 9 322 0
10 9 322 0
19 10 9 323 0
-318 324 0
-319 325 0
-320 326 0
-321 324 0
-322 325 0
-323 326 0
-318 -321 325 0
-318 -322 326 0
-318 -323 327 0
-319 -321 326 0
-319 -322 327 0
-319 -323 328 0
-320 -321 327 0
-320 -322 328 0
-320 -323 329 0
-29 330 0
16 330 0
-29 16 331 0
15 330 0
-29 15 331 0
16 15 331 0
-29 16 15 332 0
-30 333 0
-330 333 0
-331 334 0
-332 335 0
-30 -330 334 0
-30 -331 335 0
-30 -332 336 0
-336 0
-333 337 0
-334 338 0
-335 339 0
-336 340 0
-325 337 0
-327 338 0
-329 339 0
-333 -325 338 0
-333 -327 339 0
-333 -329 340 0
-334 -325 339 0
-334 -327 340 0
-335 -325 340 0
-340 0
-30 341 0
-338 341 0
-340 342 0
-30 -338 342 0
-342 0
343 0
31 344 0
-16 344 0
31 -16 345 0
-15 346 0
-12 346 0
-15 -12 347 0
-11 346 0
-15 -11 347 0
-12 -11 347 0
-15 -12 -11 348 0
-344 349 0
-345 350 0
-346 349 0
-347 350 0
-348 351 0
-344 -346 350 0
-344 -347 351 0
-344 -348 352 0
-345 -346 351 0
-345 -347 352 0
-345 -348 353 0
-343 354 0
32 354 0
-343 32 355 0
31 354 0
-343 31 355 0
32 31 355 0
-343 32 31 356 0
-19 357 0
-18 357 0
-19 -18 358 0
-17 357 0
-19 -17 358 0
-18 -17 358 0
-19 -18 -17 359 0
-20 360 0
-357 360 0
-358 361 0
-359 362 0
-20 -357 361 0
-20 -358 362 0
-20 -359 363 0
-354 364 0
-355 365 0
-356 366 0
-360 364 0
-361 365 0
-362 366 0
-363 367 0
-354 -360 365 0
-354 -361 366 0
-354 -362 367 0
-354 -363 368 0
-355 -360 366 0
-355 -361 367 0
-355 -362 368 0
-355 -363 369 0
-356 -360 367 0
-356 -361 368 0
-356 -362 369 0
-356 -363 370 0
-364 371 0
-365 372 0
-366 373 0
-367 374 0
-368 375 0
-369 376 0
-370 377 0
-350 371 0
-352 372 0
-364 -350 372 0
-364 -352 373 0
-365 -350 373 0
-365 -352 374 0
-366 -350 374 0
-366 -352 375 0
-367 -350 375 0
-367 -352 376 0
-368 -350 376 0
-368 -352 377 0
-369 -350 377 0
-369 -352 378 0
-370 -350 378 0
-370 -352 379 0
33 380 0
32 380 0
33 32 381 0
-380 382 0
-381 383 0
-372 382 0
-374 383 0
-376 384 0
-378 385 0
-380 -372 383 0
-380 -374 384 0
-380 -376 385 0
-380 -378 386 0
-381 -372 384 0
-381 -374 385 0
-381 -376 386 0
-381 -378 387 0
-387 0
33 388 0
-383 388 0
-385 389 0
-387 390 0
33 -383 389 0
33 -385 390 0
-390 0
391 0
-391 392 0
-31 392 0
-391 -31 393 0
16 392 0
-391 16 393 0
-31 16 393 0
-391 -31 16 394 0
15 395 0
12 395 0
15 12 396 0
11 395 0
15 11 396 0
12 11 396 0
15 12 11 397 0
-392 398 0
-393 399 0
-394 400 0
-395 398 0
-396 399 0
-397 400 0
-392 -395 399 0
-392 -396 400 0
-392 -397 401 0
-393 -395 400 0
-393 -396 401 0
-393 -397 402 0
-394 -395 401 0
-394 -396 402 0
-394 -397 403 0
-391 404 0
-32 404 0
-391 -32 405 0
-31 404 0
-391 -31 405 0
-32 -31 405 0
-391 -32 -31 406 0
19 407 0
18 407 0
19 18 408 0
17 407 0
19 17 408 0
18 17 408 0
19 18 17 409 0
20 410 0
-407 410 0
-408 411 0
-409 412 0
20 -407 411 0
20 -408 412 0
20 -409 413 0
-404 414 0
-405 415 0
-406 416 0
-410 414 0
-411 415 0
-412 416 0
-413 417 0
-404 -410 415 0
-404 -411 416 0
-404 -412 417 0
-404 -413 418 0
-405 -410 416 0
-405 -411 417 0
-405 -412 418 0
-405 -413 419 0
-406 -410 417 0
-406 -411 418 0
-406 -412 419 0
-406 -413 420 0
-414 421 0
-415 422 0
-416 423 0
-417 424 0
-418 425 0
-419 426 0
-420 427 0
-399 421 0
-401 422 0
-403 423 0
-414 -399 422 0
-414 -401 423 0
-414 -403 424 0
-415 -399 423 0
-415 -401 424 0
-415 -403 425 0
-416 -399 424 0
-416 -401 425 0
-416 -403 426 0
-417 -399 425 0
-417 -401 426 0
-417 -403 427 0
-418 -399 426 0
-418 -401 427 0
-418 -403 428 0
-419 -399 427 0
-419 -401 428 0
-420 -399 428 0
-428 0
-33 429 0
-32 429 0
-33 -32 430 0
-429 431 0
-430 432 0
-422 431 0
-424 432 0
-426 433 0
-428 434 0
-429 -422 432 0
-429 -424 433 0
-429 -426 434 0
-430 -422 433 0
-430 -424 434 0
-434 0
-33 435 0
-432 435 0
-434 436 0
-33 -432 436 0
-436 0
437 0
34 438 0
-16 438 0
34 -16 439 0
-15 440 0
-14 440 0
-15 -14 441 0
-13 440 0
-15 -13 441 0
-14 -13 441 0
-15 -14 -13 442 0
-438 443 0
-439 444 0
-440 443 0
-441 444 0
-442 445 0
-438 -440 444 0
-438 -441 445 0
-438 -442 446 0
-439 -440 445 0
-439 -441 446 0
-439 -442 447 0
34 448 0
-20 448 0
34 -20 449 0
-19 448 0
34 -19 449 0
-20 -19 449 0
34 -20 -19 450 0
35 451 0
-448 451 0
-449 452 0
-450 453 0
35 -448 452 0
35 -449 453 0
35 -450 454 0
-451 455 0
-452 456 0
-453 457 0
-454 458 0
-444 455 0
-446 456 0
-451 -444 456 0
-451 -446 457 0
-452 -444 457 0
-452 -446 458 0
-453 -444 458 0
-453 -446 459 0
-454 -444 459 0
-454 -446 460 0
-460 0
35 461 0
-456 461 0
-458 462 0
-460 463 0
35 -456 462 0
35 -458 463 0
-463 0
464 0
-464 465 0
-34 465 0
-464 -34 466 0
16 465 0
-464 16 466 0
-34 16 466 0
-464 -34 16 467 0
15 468 0
14 468 0
15 14 469 0
13 468 0
15 13 469 0
14 13 469 0
15 14 13 470 0
-465 471 0
-466 472 0
-467 473 0
-468 471 0
-469 472 0
-470 473 0
-465 -468 472 0
-465 -469 473 0
-465 -470 474 0
-466 -468 473 0
-466 -469 474 0
-466 -470 475 0
-467 -468 474 0
-467 -469 475 0
-467 -470 476 0
-34 477 0
20 477 0
-34 20 478 0
19 477 0
-34 19 478 0
20 19 478 0
-34 20 19 479 0
-35 480 0
-477 480 0
-478 481 0
-479 482 0
-35 -477 481 0
-35 -478 482 0
-35 -479 483 0
-483 0
-480 484 0
-481 485 0
-482 486 0
-483 487 0
-472 484 0
-474 485 0
-476 486 0
-480 -472 485 0
-480 -474 486 0
-480 -476 487 0
-481 -472 486 0
-481 -474 487 0
-482 -472 487 0
-487 0
-35 488 0
-485 488 0
-487 489 0
-35 -485 489 0
-489 0
1 490 0
3 490 0
1 3 491 0
5 492 0
7 492 0
5 7 493 0
9 494 0
11 494 0
9 11 495 0
13 496 0
15 496 0
13 15 497 0
17 498 0
19 498 0
17 19 499 0
-496 500 0
-498 500 0
-496 -498 501 0
-497 502 0
-499 502 0
-497 -499 503 0
-501 504 0
-502 504 0
-501 -502 505 0
-494 506 0
-500 506 0
-494 -500 507 0
-495 508 0
-504 508 0
-495 -504 509 0
-507 510 0
-508 510 0
-507 -508 511 0
-492 512 0
-506 512 0
-492 -506 513 0
-493 514 0
-510 514 0
-493 -510 515 0
-513 516 0
-514 516 0
-513 -514 517 0
-490 518 0
-512 518 0
-490 -512 519 0
-491 520 0
-516 520 0
-491 -516 521 0
-519 522 0
-520 522 0
-519 -520 523 0
-522 0
